c File: instances/26_0.35_1.col
c
c Description: Random graph of size 26 vertices and P(0.35) of edges between any two vertices.
p col 26 325
e 1 3
e 1 5
e 1 6
e 1 9
e 1 10
e 1 12
e 1 16
e 1 19
e 1 23
e 1 26
e 2 3
e 2 4
e 2 8
e 2 17
e 2 18
e 2 19
e 2 22
e 2 24
e 2 25
e 3 4
e 3 5
e 3 8
e 3 13
e 3 15
e 3 17
e 3 24
e 4 5
e 4 8
e 4 21
e 4 22
e 4 23
e 4 24
e 5 7
e 5 12
e 5 17
e 5 18
e 5 20
e 5 21
e 5 22
e 6 8
e 6 9
e 6 12
e 6 14
e 6 18
e 6 19
e 6 20
e 6 21
e 6 24
e 6 26
e 7 8
e 7 13
e 7 15
e 7 20
e 7 21
e 7 23
e 7 24
e 8 9
e 8 11
e 8 17
e 8 18
e 8 21
e 9 11
e 9 17
e 9 18
e 9 19
e 9 22
e 9 25
e 10 11
e 10 12
e 10 16
e 10 17
e 10 18
e 10 19
e 10 23
e 10 26
e 11 16
e 11 18
e 12 15
e 12 20
e 12 22
e 12 24
e 13 14
e 13 17
e 13 18
e 13 19
e 13 21
e 13 23
e 13 24
e 13 25
e 13 26
e 14 18
e 14 21
e 14 25
e 15 17
e 15 18
e 15 19
e 15 22
e 15 24
e 16 17
e 16 18
e 16 21
e 16 22
e 16 25
e 16 26
e 17 18
e 17 19
e 17 20
e 17 22
e 19 20
e 19 23
e 19 25
e 20 23
e 20 26
e 21 26
e 22 24
e 24 26
e 25 26